p tw 144 23761 2 
1 3 
1 4 
1 5 
1 6 
1 7 
1 8 
1 9 
1 10 
1 11 
1 12 
1 13 
1 17 
1 25 
1 35 
1 37 
1 46 
1 49 
1 54 
1 61 
1 68 
1 73 
1 75 
1 85 
1 93 
1 97 
1 103 
1 109 
1 112 
1 121 
1 132 
1 133 
1 134 
2 3 
2 4 
2 5 
2 6 
2 7 
2 8 
2 9 
2 10 
2 11 
2 12 
2 13 
2 14 
2 26 
2 34 
2 38 
2 42 
2 50 
2 59 
2 62 
2 69 
2 74 
2 80 
2 86 
2 91 
2 98 
2 101 
2 110 
2 120 
2 122 
2 124 
2 134 
2 135 
3 4 
3 5 
3 6 
3 7 
3 8 
3 9 
3 10 
3 11 
3 12 
3 15 
3 23 
3 26 
3 27 
3 39 
3 44 
3 51 
3 55 
3 61 
3 63 
3 75 
3 76 
3 87 
3 90 
3 99 
3 105 
3 111 
3 113 
3 123 
3 130 
3 135 
3 144 
4 5 
4 6 
4 7 
4 8 
4 9 
4 10 
4 11 
4 12 
4 16 
4 22 
4 28 
4 36 
4 40 
4 43 
4 49 
4 52 
4 64 
4 65 
4 76 
4 83 
4 87 
4 88 
4 100 
4 102 
4 110 
4 112 
4 124 
4 129 
4 136 
4 140 
5 6 
5 7 
5 8 
5 9 
5 10 
5 11 
5 12 
5 17 
5 19 
5 29 
5 32 
5 41 
5 45 
5 52 
5 53 
5 65 
5 70 
5 77 
5 78 
5 89 
5 96 
5 99 
5 101 
5 113 
5 119 
5 122 
5 125 
5 133 
5 137 
6 7 
6 8 
6 9 
6 10 
6 11 
6 12 
6 18 
6 21 
6 29 
6 30 
6 38 
6 42 
6 51 
6 54 
6 66 
6 71 
6 78 
6 82 
6 90 
6 92 
6 102 
6 108 
6 114 
6 115 
6 121 
6 126 
6 136 
6 138 
7 8 
7 9 
7 10 
7 11 
7 12 
7 18 
7 19 
7 27 
7 31 
7 40 
7 43 
7 55 
7 56 
7 67 
7 72 
7 73 
7 79 
7 91 
7 95 
7 98 
7 103 
7 115 
7 118 
7 125 
7 127 
7 139 
7 141 
8 9 
8 10 
8 11 
8 12 
8 20 
8 24 
8 32 
8 33 
8 37 
8 44 
8 50 
8 56 
8 67 
8 68 
8 77 
8 80 
8 92 
8 94 
8 100 
8 104 
8 114 
8 116 
8 123 
8 128 
8 140 
8 143 
9 10 
9 11 
9 12 
9 20 
9 21 
9 31 
9 33 
9 45 
9 47 
9 53 
9 57 
9 62 
9 69 
9 81 
9 84 
9 88 
9 93 
9 97 
9 105 
9 111 
9 117 
9 126 
9 129 
9 141 
9 142 
10 11 
10 12 
10 15 
10 22 
10 30 
10 34 
10 46 
10 48 
10 57 
10 58 
10 64 
10 70 
10 79 
10 82 
10 86 
10 94 
10 104 
10 106 
10 109 
10 118 
10 130 
10 131 
10 137 
10 142 
11 12 
11 14 
11 23 
11 28 
11 35 
11 41 
11 47 
11 59 
11 60 
11 63 
11 71 
11 81 
11 83 
11 85 
11 95 
11 106 
11 107 
11 116 
11 119 
11 127 
11 131 
11 138 
11 143 
12 16 
12 24 
12 25 
12 36 
12 39 
12 48 
12 58 
12 60 
12 66 
12 72 
12 74 
12 84 
12 89 
12 96 
12 107 
12 108 
12 117 
12 120 
12 128 
12 132 
12 139 
12 144 
13 14 
13 15 
13 16 
13 17 
13 18 
13 19 
13 20 
13 21 
13 22 
13 23 
13 24 
13 25 
13 34 
13 37 
13 42 
13 49 
13 59 
13 61 
13 69 
13 73 
13 80 
13 85 
13 91 
13 97 
13 101 
13 109 
13 120 
13 121 
13 124 
13 133 
13 135 
14 15 
14 16 
14 17 
14 18 
14 19 
14 20 
14 21 
14 22 
14 23 
14 24 
14 26 
14 28 
14 38 
14 41 
14 50 
14 60 
14 62 
14 63 
14 74 
14 81 
14 85 
14 86 
14 98 
14 106 
14 110 
14 116 
14 122 
14 127 
14 134 
14 138 
15 16 
15 17 
15 18 
15 19 
15 20 
15 21 
15 22 
15 23 
15 24 
15 27 
15 30 
15 39 
15 48 
15 51 
15 57 
15 63 
15 64 
15 75 
15 79 
15 86 
15 87 
15 99 
15 104 
15 109 
15 111 
15 123 
15 131 
15 135 
15 137 
16 17 
16 18 
16 19 
16 20 
16 21 
16 22 
16 23 
16 24 
16 25 
16 28 
16 39 
16 40 
16 52 
16 58 
16 64 
16 66 
16 74 
16 76 
16 88 
16 89 
16 100 
16 107 
16 112 
16 117 
16 124 
16 128 
16 136 
16 139 
17 18 
17 19 
17 20 
17 21 
17 22 
17 23 
17 24 
17 29 
17 35 
17 41 
17 46 
17 53 
17 54 
17 65 
17 68 
17 75 
17 77 
17 89 
17 93 
17 101 
17 103 
17 112 
17 113 
17 125 
17 132 
17 134 
17 137 
18 19 
18 20 
18 21 
18 22 
18 23 
18 24 
18 27 
18 30 
18 40 
18 42 
18 54 
18 56 
18 66 
18 72 
18 73 
18 78 
18 90 
18 95 
18 98 
18 102 
18 114 
18 118 
18 125 
18 126 
18 138 
18 141 
19 20 
19 21 
19 22 
19 23 
19 24 
19 31 
19 32 
19 43 
19 45 
19 52 
19 55 
19 67 
19 70 
19 78 
19 79 
19 91 
19 96 
19 99 
19 103 
19 115 
19 119 
19 122 
19 127 
19 133 
19 139 
20 21 
20 22 
20 23 
20 24 
20 31 
20 32 
20 44 
20 47 
20 53 
20 56 
20 62 
20 68 
20 80 
20 84 
20 88 
20 92 
20 97 
20 104 
20 111 
20 116 
20 126 
20 128 
20 140 
20 142 
21 22 
21 23 
21 24 
21 29 
21 33 
21 38 
21 45 
21 51 
21 57 
21 69 
21 71 
21 81 
21 82 
21 92 
21 93 
21 105 
21 108 
21 115 
21 117 
21 121 
21 129 
21 136 
21 141 
22 23 
22 24 
22 34 
22 36 
22 43 
22 46 
22 49 
22 58 
22 65 
22 70 
22 82 
22 83 
22 87 
22 94 
22 102 
22 106 
22 110 
22 118 
22 129 
22 130 
22 140 
22 142 
23 24 
23 26 
23 35 
23 44 
23 47 
23 55 
23 59 
23 61 
23 71 
23 76 
23 83 
23 90 
23 95 
23 105 
23 107 
23 113 
23 119 
23 130 
23 131 
23 143 
23 144 
24 33 
24 36 
24 37 
24 48 
24 50 
24 60 
24 67 
24 72 
24 77 
24 84 
24 94 
24 96 
24 100 
24 108 
24 114 
24 120 
24 123 
24 132 
24 143 
24 144 
25 26 
25 27 
25 28 
25 29 
25 30 
25 31 
25 32 
25 33 
25 34 
25 35 
25 36 
25 37 
25 39 
25 49 
25 58 
25 61 
25 66 
25 73 
25 74 
25 85 
25 89 
25 97 
25 107 
25 109 
25 117 
25 121 
25 128 
25 133 
25 139 
26 27 
26 28 
26 29 
26 30 
26 31 
26 32 
26 33 
26 34 
26 35 
26 36 
26 38 
26 44 
26 50 
26 55 
26 61 
26 62 
26 74 
26 76 
26 86 
26 90 
26 98 
26 105 
26 110 
26 113 
26 122 
26 130 
26 134 
26 144 
27 28 
27 29 
27 30 
27 31 
27 32 
27 33 
27 34 
27 35 
27 36 
27 39 
27 40 
27 51 
27 56 
27 63 
27 72 
27 73 
27 75 
27 87 
27 95 
27 98 
27 99 
27 111 
27 118 
27 123 
27 125 
27 135 
27 141 
28 29 
28 30 
28 31 
28 32 
28 33 
28 34 
28 35 
28 36 
28 40 
28 41 
28 52 
28 60 
28 63 
28 64 
28 76 
28 81 
28 85 
28 88 
28 100 
28 106 
28 112 
28 116 
28 124 
28 127 
28 136 
28 138 
29 30 
29 31 
29 32 
29 33 
29 34 
29 35 
29 36 
29 38 
29 41 
29 51 
29 53 
29 65 
29 71 
29 77 
29 82 
29 89 
29 92 
29 101 
29 108 
29 113 
29 115 
29 121 
29 125 
29 136 
29 137 
30 31 
30 32 
30 33 
30 34 
30 35 
30 36 
30 42 
30 48 
30 54 
30 57 
30 64 
30 66 
30 78 
30 79 
30 86 
30 90 
30 102 
30 104 
30 109 
30 114 
30 126 
30 131 
30 137 
30 138 
31 32 
31 33 
31 34 
31 35 
31 36 
31 43 
31 47 
31 53 
31 55 
31 62 
31 67 
31 79 
31 84 
31 88 
31 91 
31 97 
31 103 
31 111 
31 115 
31 126 
31 127 
31 139 
31 142 
32 33 
32 34 
32 35 
32 36 
32 44 
32 45 
32 52 
32 56 
32 68 
32 70 
32 78 
32 80 
32 92 
32 96 
32 99 
32 104 
32 116 
32 119 
32 122 
32 128 
32 133 
32 140 
33 34 
33 35 
33 36 
33 37 
33 45 
33 50 
33 57 
33 67 
33 69 
33 77 
33 81 
33 93 
33 94 
33 100 
33 105 
33 114 
33 117 
33 123 
33 129 
33 141 
33 143 
34 35 
34 36 
34 42 
34 46 
34 58 
34 59 
34 69 
34 70 
34 80 
34 82 
34 91 
34 94 
34 101 
34 106 
34 118 
34 120 
34 124 
34 130 
34 135 
34 142 
35 36 
35 46 
35 47 
35 54 
35 59 
35 68 
35 71 
35 75 
35 83 
35 93 
35 95 
35 103 
35 107 
35 112 
35 119 
35 131 
35 132 
35 134 
35 143 
36 43 
36 48 
36 49 
36 60 
36 65 
36 72 
36 83 
36 84 
36 87 
36 96 
36 102 
36 108 
36 110 
36 120 
36 129 
36 132 
36 140 
36 144 
37 38 
37 39 
37 40 
37 41 
37 42 
37 43 
37 44 
37 45 
37 46 
37 47 
37 48 
37 49 
37 50 
37 61 
37 67 
37 73 
37 77 
37 85 
37 94 
37 97 
37 100 
37 109 
37 114 
37 121 
37 123 
37 133 
37 143 
38 39 
38 40 
38 41 
38 42 
38 43 
38 44 
38 45 
38 46 
38 47 
38 48 
38 50 
38 51 
38 62 
38 71 
38 74 
38 82 
38 86 
38 92 
38 98 
38 108 
38 110 
38 115 
38 121 
38 122 
38 134 
38 136 
39 40 
39 41 
39 42 
39 43 
39 44 
39 45 
39 46 
39 47 
39 48 
39 51 
39 58 
39 63 
39 66 
39 74 
39 75 
39 87 
39 89 
39 99 
39 107 
39 111 
39 117 
39 123 
39 128 
39 135 
39 139 
40 41 
40 42 
40 43 
40 44 
40 45 
40 46 
40 47 
40 48 
40 52 
40 56 
40 64 
40 72 
40 73 
40 76 
40 88 
40 95 
40 98 
40 100 
40 112 
40 118 
40 124 
40 125 
40 136 
40 141 
41 42 
41 43 
41 44 
41 45 
41 46 
41 47 
41 48 
41 53 
41 60 
41 63 
41 65 
41 77 
41 81 
41 85 
41 89 
41 101 
41 106 
41 113 
41 116 
41 125 
41 127 
41 137 
41 138 
42 43 
42 44 
42 45 
42 46 
42 47 
42 48 
42 54 
42 59 
42 66 
42 69 
42 78 
42 80 
42 90 
42 91 
42 101 
42 102 
42 114 
42 120 
42 124 
42 126 
42 135 
42 138 
43 44 
43 45 
43 46 
43 47 
43 48 
43 49 
43 55 
43 65 
43 67 
43 79 
43 83 
43 87 
43 91 
43 102 
43 103 
43 110 
43 115 
43 127 
43 129 
43 139 
43 140 
44 45 
44 46 
44 47 
44 48 
44 55 
44 56 
44 61 
44 68 
44 76 
44 80 
44 90 
44 92 
44 104 
44 105 
44 113 
44 116 
44 128 
44 130 
44 140 
44 144 
45 46 
45 47 
45 48 
45 52 
45 57 
45 69 
45 70 
45 78 
45 81 
45 93 
45 96 
45 99 
45 105 
45 117 
45 119 
45 122 
45 129 
45 133 
45 141 
46 47 
46 48 
46 54 
46 58 
46 68 
46 70 
46 75 
46 82 
46 93 
46 94 
46 103 
46 106 
46 112 
46 118 
46 130 
46 132 
46 134 
46 142 
47 48 
47 53 
47 59 
47 62 
47 71 
47 83 
47 84 
47 88 
47 95 
47 97 
47 107 
47 111 
47 119 
47 126 
47 131 
47 142 
47 143 
48 57 
48 60 
48 64 
48 72 
48 79 
48 84 
48 86 
48 96 
48 104 
48 108 
48 109 
48 120 
48 131 
48 132 
48 137 
48 144 
49 50 
49 51 
49 52 
49 53 
49 54 
49 55 
49 56 
49 57 
49 58 
49 59 
49 60 
49 61 
49 65 
49 73 
49 83 
49 85 
49 87 
49 97 
49 102 
49 109 
49 110 
49 121 
49 129 
49 133 
49 140 
50 51 
50 52 
50 53 
50 54 
50 55 
50 56 
50 57 
50 58 
50 59 
50 60 
50 62 
50 67 
50 74 
50 77 
50 86 
50 94 
50 98 
50 100 
50 110 
50 114 
50 122 
50 123 
50 134 
50 143 
51 52 
51 53 
51 54 
51 55 
51 56 
51 57 
51 58 
51 59 
51 60 
51 63 
51 71 
51 75 
51 82 
51 87 
51 92 
51 99 
51 108 
51 111 
51 115 
51 121 
51 123 
51 135 
51 136 
52 53 
52 54 
52 55 
52 56 
52 57 
52 58 
52 59 
52 60 
52 64 
52 70 
52 76 
52 78 
52 88 
52 96 
52 99 
52 100 
52 112 
52 119 
52 122 
52 124 
52 133 
52 136 
53 54 
53 55 
53 56 
53 57 
53 58 
53 59 
53 60 
53 62 
53 65 
53 77 
53 84 
53 88 
53 89 
53 97 
53 101 
53 111 
53 113 
53 125 
53 126 
53 137 
53 142 
54 55 
54 56 
54 57 
54 58 
54 59 
54 60 
54 66 
54 68 
54 75 
54 78 
54 90 
54 93 
54 102 
54 103 
54 112 
54 114 
54 126 
54 132 
54 134 
54 138 
55 56 
55 57 
55 58 
55 59 
55 60 
55 61 
55 67 
55 76 
55 79 
55 90 
55 91 
55 103 
55 105 
55 113 
55 115 
55 127 
55 130 
55 139 
55 144 
56 57 
56 58 
56 59 
56 60 
56 68 
56 72 
56 73 
56 80 
56 92 
56 95 
56 98 
56 104 
56 116 
56 118 
56 125 
56 128 
56 140 
56 141 
57 58 
57 59 
57 60 
57 64 
57 69 
57 79 
57 81 
57 86 
57 93 
57 104 
57 105 
57 109 
57 117 
57 129 
57 131 
57 137 
57 141 
58 59 
58 60 
58 66 
58 70 
58 74 
58 82 
58 89 
58 94 
58 106 
58 107 
58 117 
58 118 
58 128 
58 130 
58 139 
58 142 
59 60 
59 69 
59 71 
59 80 
59 83 
59 91 
59 95 
59 101 
59 107 
59 119 
59 120 
59 124 
59 131 
59 135 
59 143 
60 63 
60 72 
60 81 
60 84 
60 85 
60 96 
60 106 
60 108 
60 116 
60 120 
60 127 
60 132 
60 138 
60 144 
61 62 
61 63 
61 64 
61 65 
61 66 
61 67 
61 68 
61 69 
61 70 
61 71 
61 72 
61 73 
61 76 
61 85 
61 90 
61 97 
61 105 
61 109 
61 113 
61 121 
61 130 
61 133 
61 144 
62 63 
62 64 
62 65 
62 66 
62 67 
62 68 
62 69 
62 70 
62 71 
62 72 
62 74 
62 84 
62 86 
62 88 
62 97 
62 98 
62 110 
62 111 
62 122 
62 126 
62 134 
62 142 
63 64 
63 65 
63 66 
63 67 
63 68 
63 69 
63 70 
63 71 
63 72 
63 75 
63 81 
63 85 
63 87 
63 99 
63 106 
63 111 
63 116 
63 123 
63 127 
63 135 
63 138 
64 65 
64 66 
64 67 
64 68 
64 69 
64 70 
64 71 
64 72 
64 76 
64 79 
64 86 
64 88 
64 100 
64 104 
64 109 
64 112 
64 124 
64 131 
64 136 
64 137 
65 66 
65 67 
65 68 
65 69 
65 70 
65 71 
65 72 
65 77 
65 83 
65 87 
65 89 
65 101 
65 102 
65 110 
65 113 
65 125 
65 129 
65 137 
65 140 
66 67 
66 68 
66 69 
66 70 
66 71 
66 72 
66 74 
66 78 
66 89 
66 90 
66 102 
66 107 
66 114 
66 117 
66 126 
66 128 
66 138 
66 139 
67 68 
67 69 
67 70 
67 71 
67 72 
67 77 
67 79 
67 91 
67 94 
67 100 
67 103 
67 114 
67 115 
67 123 
67 127 
67 139 
67 143 
68 69 
68 70 
68 71 
68 72 
68 75 
68 80 
68 92 
68 93 
68 103 
68 104 
68 112 
68 116 
68 128 
68 132 
68 134 
68 140 
69 70 
69 71 
69 72 
69 80 
69 81 
69 91 
69 93 
69 101 
69 105 
69 117 
69 120 
69 124 
69 129 
69 135 
69 141 
70 71 
70 72 
70 78 
70 82 
70 94 
70 96 
70 99 
70 106 
70 118 
70 119 
70 122 
70 130 
70 133 
70 142 
71 72 
71 82 
71 83 
71 92 
71 95 
71 107 
71 108 
71 115 
71 119 
71 121 
71 131 
71 136 
71 143 
72 73 
72 84 
72 95 
72 96 
72 98 
72 108 
72 118 
72 120 
72 125 
72 132 
72 141 
72 144 
73 74 
73 75 
73 76 
73 77 
73 78 
73 79 
73 80 
73 81 
73 82 
73 83 
73 84 
73 85 
73 95 
73 97 
73 98 
73 109 
73 118 
73 121 
73 125 
73 133 
73 141 
74 75 
74 76 
74 77 
74 78 
74 79 
74 80 
74 81 
74 82 
74 83 
74 84 
74 86 
74 89 
74 98 
74 107 
74 110 
74 117 
74 122 
74 128 
74 134 
74 139 
75 76 
75 77 
75 78 
75 79 
75 80 
75 81 
75 82 
75 83 
75 84 
75 87 
75 93 
75 99 
75 103 
75 111 
75 112 
75 123 
75 132 
75 134 
75 135 
76 77 
76 78 
76 79 
76 80 
76 81 
76 82 
76 83 
76 84 
76 88 
76 90 
76 100 
76 105 
76 112 
76 113 
76 124 
76 130 
76 136 
76 144 
77 78 
77 79 
77 80 
77 81 
77 82 
77 83 
77 84 
77 89 
77 94 
77 100 
77 101 
77 113 
77 114 
77 123 
77 125 
77 137 
77 143 
78 79 
78 80 
78 81 
78 82 
78 83 
78 84 
78 90 
78 96 
78 99 
78 102 
78 114 
78 119 
78 122 
78 126 
78 133 
78 138 
79 80 
79 81 
79 82 
79 83 
79 84 
79 86 
79 91 
79 103 
79 104 
79 109 
79 115 
79 127 
79 131 
79 137 
79 139 
80 81 
80 82 
80 83 
80 84 
80 91 
80 92 
80 101 
80 104 
80 116 
80 120 
80 124 
80 128 
80 135 
80 140 
81 82 
81 83 
81 84 
81 85 
81 93 
81 105 
81 106 
81 116 
81 117 
81 127 
81 129 
81 138 
81 141 
82 83 
82 84 
82 92 
82 94 
82 106 
82 108 
82 115 
82 118 
82 121 
82 130 
82 136 
82 142 
83 84 
83 87 
83 95 
83 102 
83 107 
83 110 
83 119 
83 129 
83 131 
83 140 
83 143 
84 88 
84 96 
84 97 
84 108 
84 111 
84 120 
84 126 
84 132 
84 142 
84 144 
85 86 
85 87 
85 88 
85 89 
85 90 
85 91 
85 92 
85 93 
85 94 
85 95 
85 96 
85 97 
85 106 
85 109 
85 116 
85 121 
85 127 
85 133 
85 138 
86 87 
86 88 
86 89 
86 90 
86 91 
86 92 
86 93 
86 94 
86 95 
86 96 
86 98 
86 104 
86 109 
86 110 
86 122 
86 131 
86 134 
86 137 
87 88 
87 89 
87 90 
87 91 
87 92 
87 93 
87 94 
87 95 
87 96 
87 99 
87 102 
87 110 
87 111 
87 123 
87 129 
87 135 
87 140 
88 89 
88 90 
88 91 
88 92 
88 93 
88 94 
88 95 
88 96 
88 97 
88 100 
88 111 
88 112 
88 124 
88 126 
88 136 
88 142 
89 90 
89 91 
89 92 
89 93 
89 94 
89 95 
89 96 
89 101 
89 107 
89 113 
89 117 
89 125 
89 128 
89 137 
89 139 
90 91 
90 92 
90 93 
90 94 
90 95 
90 96 
90 102 
90 105 
90 113 
90 114 
90 126 
90 130 
90 138 
90 144 
91 92 
91 93 
91 94 
91 95 
91 96 
91 101 
91 103 
91 115 
91 120 
91 124 
91 127 
91 135 
91 139 
92 93 
92 94 
92 95 
92 96 
92 104 
92 108 
92 115 
92 116 
92 121 
92 128 
92 136 
92 140 
93 94 
93 95 
93 96 
93 103 
93 105 
93 112 
93 117 
93 129 
93 132 
93 134 
93 141 
94 95 
94 96 
94 100 
94 106 
94 114 
94 118 
94 123 
94 130 
94 142 
94 143 
95 96 
95 98 
95 107 
95 118 
95 119 
95 125 
95 131 
95 141 
95 143 
96 99 
96 108 
96 119 
96 120 
96 122 
96 132 
96 133 
96 144 
97 98 
97 99 
97 100 
97 101 
97 102 
97 103 
97 104 
97 105 
97 106 
97 107 
97 108 
97 109 
97 111 
97 121 
97 126 
97 133 
97 142 
98 99 
98 100 
98 101 
98 102 
98 103 
98 104 
98 105 
98 106 
98 107 
98 108 
98 110 
98 118 
98 122 
98 125 
98 134 
98 141 
99 100 
99 101 
99 102 
99 103 
99 104 
99 105 
99 106 
99 107 
99 108 
99 111 
99 119 
99 122 
99 123 
99 133 
99 135 
100 101 
100 102 
100 103 
100 104 
100 105 
100 106 
100 107 
100 108 
100 112 
100 114 
100 123 
100 124 
100 136 
100 143 
101 102 
101 103 
101 104 
101 105 
101 106 
101 107 
101 108 
101 113 
101 120 
101 124 
101 125 
101 135 
101 137 
102 103 
102 104 
102 105 
102 106 
102 107 
102 108 
102 110 
102 114 
102 126 
102 129 
102 138 
102 140 
103 104 
103 105 
103 106 
103 107 
103 108 
103 112 
103 115 
103 127 
103 132 
103 134 
103 139 
104 105 
104 106 
104 107 
104 108 
104 109 
104 116 
104 128 
104 131 
104 137 
104 140 
105 106 
105 107 
105 108 
105 113 
105 117 
105 129 
105 130 
105 141 
105 144 
106 107 
106 108 
106 116 
106 118 
106 127 
106 130 
106 138 
106 142 
107 108 
107 117 
107 119 
107 128 
107 131 
107 139 
107 143 
108 115 
108 120 
108 121 
108 132 
108 136 
108 144 
109 110 
109 111 
109 112 
109 113 
109 114 
109 115 
109 116 
109 117 
109 118 
109 119 
109 120 
109 121 
109 131 
109 133 
109 137 
110 111 
110 112 
110 113 
110 114 
110 115 
110 116 
110 117 
110 118 
110 119 
110 120 
110 122 
110 129 
110 134 
110 140 
111 112 
111 113 
111 114 
111 115 
111 116 
111 117 
111 118 
111 119 
111 120 
111 123 
111 126 
111 135 
111 142 
112 113 
112 114 
112 115 
112 116 
112 117 
112 118 
112 119 
112 120 
112 124 
112 132 
112 134 
112 136 
113 114 
113 115 
113 116 
113 117 
113 118 
113 119 
113 120 
113 125 
113 130 
113 137 
113 144 
114 115 
114 116 
114 117 
114 118 
114 119 
114 120 
114 123 
114 126 
114 138 
114 143 
115 116 
115 117 
115 118 
115 119 
115 120 
115 121 
115 127 
115 136 
115 139 
116 117 
116 118 
116 119 
116 120 
116 127 
116 128 
116 138 
116 140 
117 118 
117 119 
117 120 
117 128 
117 129 
117 139 
117 141 
118 119 
118 120 
118 125 
118 130 
118 141 
118 142 
119 120 
119 122 
119 131 
119 133 
119 143 
120 124 
120 132 
120 135 
120 144 
121 122 
121 123 
121 124 
121 125 
121 126 
121 127 
121 128 
121 129 
121 130 
121 131 
121 132 
121 133 
121 136 
122 123 
122 124 
122 125 
122 126 
122 127 
122 128 
122 129 
122 130 
122 131 
122 132 
122 133 
122 134 
123 124 
123 125 
123 126 
123 127 
123 128 
123 129 
123 130 
123 131 
123 132 
123 135 
123 143 
124 125 
124 126 
124 127 
124 128 
124 129 
124 130 
124 131 
124 132 
124 135 
124 136 
125 126 
125 127 
125 128 
125 129 
125 130 
125 131 
125 132 
125 137 
125 141 
126 127 
126 128 
126 129 
126 130 
126 131 
126 132 
126 138 
126 142 
127 128 
127 129 
127 130 
127 131 
127 132 
127 138 
127 139 
128 129 
128 130 
128 131 
128 132 
128 139 
128 140 
129 130 
129 131 
129 132 
129 140 
129 141 
130 131 
130 132 
130 142 
130 144 
131 132 
131 137 
131 143 
132 134 
132 144 
133 134 
133 135 
133 136 
133 137 
133 138 
133 139 
133 140 
133 141 
133 142 
133 143 
133 144 
134 135 
134 136 
134 137 
134 138 
134 139 
134 140 
134 141 
134 142 
134 143 
134 144 
135 136 
135 137 
135 138 
135 139 
135 140 
135 141 
135 142 
135 143 
135 144 
136 137 
136 138 
136 139 
136 140 
136 141 
136 142 
136 143 
136 144 
137 138 
137 139 
137 140 
137 141 
137 142 
137 143 
137 144 
138 139 
138 140 
138 141 
138 142 
138 143 
138 144 
139 140 
139 141 
139 142 
139 143 
139 144 
140 141 
140 142 
140 143 
140 144 
141 142 
141 143 
141 144 
142 143 
142 144 
143 144 
